c Reduced graph for R75_5gb generated by Cyril Grelier
p edge 75 1407
e 1 2
e 1 3
e 1 4
e 1 5
e 1 8
e 1 12
e 1 13
e 1 14
e 1 16
e 1 17
e 1 20
e 1 21
e 1 24
e 1 25
e 1 26
e 1 27
e 1 30
e 1 32
e 1 33
e 1 35
e 1 38
e 1 43
e 1 44
e 1 46
e 1 52
e 1 53
e 1 54
e 1 55
e 1 59
e 1 61
e 1 64
e 1 67
e 1 68
e 1 69
e 1 72
e 1 73
e 1 74
e 2 5
e 2 7
e 2 8
e 2 9
e 2 10
e 2 16
e 2 19
e 2 20
e 2 34
e 2 35
e 2 36
e 2 38
e 2 40
e 2 42
e 2 44
e 2 46
e 2 48
e 2 50
e 2 52
e 2 53
e 2 54
e 2 55
e 2 57
e 2 58
e 2 59
e 2 63
e 2 64
e 2 65
e 2 66
e 2 68
e 2 70
e 2 71
e 2 72
e 2 73
e 2 74
e 3 4
e 3 5
e 3 7
e 3 12
e 3 13
e 3 15
e 3 17
e 3 19
e 3 23
e 3 24
e 3 26
e 3 27
e 3 28
e 3 29
e 3 31
e 3 35
e 3 40
e 3 42
e 3 44
e 3 45
e 3 47
e 3 48
e 3 49
e 3 52
e 3 53
e 3 54
e 3 57
e 3 58
e 3 59
e 3 61
e 3 62
e 3 63
e 3 64
e 3 66
e 3 67
e 3 68
e 3 70
e 3 72
e 3 73
e 3 74
e 4 5
e 4 9
e 4 10
e 4 11
e 4 12
e 4 13
e 4 15
e 4 18
e 4 19
e 4 20
e 4 22
e 4 26
e 4 29
e 4 31
e 4 34
e 4 37
e 4 39
e 4 40
e 4 41
e 4 42
e 4 43
e 4 44
e 4 46
e 4 47
e 4 48
e 4 49
e 4 51
e 4 52
e 4 53
e 4 54
e 4 56
e 4 62
e 4 64
e 4 66
e 4 68
e 4 69
e 4 70
e 4 71
e 4 73
e 5 8
e 5 9
e 5 12
e 5 14
e 5 15
e 5 16
e 5 18
e 5 19
e 5 20
e 5 21
e 5 23
e 5 27
e 5 28
e 5 30
e 5 32
e 5 34
e 5 35
e 5 38
e 5 42
e 5 46
e 5 49
e 5 50
e 5 51
e 5 52
e 5 53
e 5 54
e 5 56
e 5 59
e 5 60
e 5 62
e 5 63
e 5 66
e 5 69
e 5 70
e 5 75
e 6 9
e 6 11
e 6 13
e 6 14
e 6 16
e 6 17
e 6 18
e 6 19
e 6 20
e 6 21
e 6 22
e 6 24
e 6 25
e 6 27
e 6 31
e 6 35
e 6 37
e 6 40
e 6 43
e 6 47
e 6 50
e 6 52
e 6 54
e 6 56
e 6 57
e 6 58
e 6 59
e 6 61
e 6 63
e 6 66
e 6 67
e 6 69
e 6 70
e 6 71
e 6 73
e 6 75
e 7 8
e 7 11
e 7 12
e 7 14
e 7 16
e 7 17
e 7 19
e 7 20
e 7 21
e 7 22
e 7 23
e 7 25
e 7 26
e 7 28
e 7 29
e 7 30
e 7 34
e 7 35
e 7 37
e 7 39
e 7 41
e 7 46
e 7 47
e 7 49
e 7 50
e 7 52
e 7 53
e 7 58
e 7 61
e 7 65
e 7 66
e 7 72
e 7 73
e 8 9
e 8 10
e 8 12
e 8 13
e 8 14
e 8 17
e 8 21
e 8 30
e 8 31
e 8 32
e 8 40
e 8 42
e 8 44
e 8 45
e 8 47
e 8 49
e 8 51
e 8 52
e 8 54
e 8 55
e 8 58
e 8 59
e 8 60
e 8 61
e 8 63
e 8 69
e 8 74
e 8 75
e 9 12
e 9 13
e 9 14
e 9 16
e 9 17
e 9 18
e 9 19
e 9 20
e 9 21
e 9 22
e 9 23
e 9 25
e 9 26
e 9 31
e 9 35
e 9 37
e 9 38
e 9 47
e 9 49
e 9 52
e 9 53
e 9 54
e 9 55
e 9 56
e 9 57
e 9 60
e 9 61
e 9 64
e 9 65
e 9 66
e 9 68
e 9 69
e 9 70
e 9 73
e 9 74
e 10 11
e 10 18
e 10 22
e 10 23
e 10 28
e 10 29
e 10 30
e 10 31
e 10 32
e 10 33
e 10 34
e 10 36
e 10 38
e 10 42
e 10 43
e 10 44
e 10 45
e 10 47
e 10 49
e 10 50
e 10 52
e 10 53
e 10 54
e 10 57
e 10 58
e 10 59
e 10 60
e 10 63
e 10 65
e 10 66
e 10 67
e 10 69
e 10 70
e 10 71
e 10 73
e 10 74
e 11 12
e 11 14
e 11 15
e 11 18
e 11 21
e 11 23
e 11 25
e 11 28
e 11 29
e 11 30
e 11 32
e 11 33
e 11 34
e 11 37
e 11 38
e 11 39
e 11 45
e 11 46
e 11 47
e 11 51
e 11 52
e 11 53
e 11 55
e 11 57
e 11 58
e 11 60
e 11 61
e 11 63
e 11 64
e 11 65
e 11 66
e 11 70
e 11 71
e 11 75
e 12 13
e 12 16
e 12 18
e 12 20
e 12 22
e 12 23
e 12 24
e 12 25
e 12 26
e 12 35
e 12 36
e 12 37
e 12 38
e 12 39
e 12 46
e 12 47
e 12 48
e 12 50
e 12 51
e 12 52
e 12 56
e 12 57
e 12 59
e 12 63
e 12 64
e 12 65
e 12 70
e 12 73
e 12 74
e 13 14
e 13 15
e 13 23
e 13 26
e 13 27
e 13 30
e 13 31
e 13 36
e 13 37
e 13 38
e 13 40
e 13 43
e 13 47
e 13 48
e 13 50
e 13 52
e 13 55
e 13 59
e 13 60
e 13 61
e 13 62
e 13 64
e 13 65
e 13 66
e 13 67
e 13 69
e 13 72
e 13 73
e 13 74
e 14 17
e 14 18
e 14 20
e 14 21
e 14 28
e 14 29
e 14 32
e 14 33
e 14 34
e 14 36
e 14 37
e 14 38
e 14 39
e 14 42
e 14 51
e 14 52
e 14 53
e 14 55
e 14 56
e 14 57
e 14 60
e 14 62
e 14 64
e 14 65
e 14 66
e 14 70
e 14 74
e 14 75
e 15 17
e 15 18
e 15 19
e 15 20
e 15 21
e 15 24
e 15 25
e 15 30
e 15 31
e 15 35
e 15 37
e 15 38
e 15 39
e 15 42
e 15 43
e 15 44
e 15 47
e 15 49
e 15 51
e 15 55
e 15 57
e 15 58
e 15 60
e 15 62
e 15 65
e 15 68
e 15 72
e 15 73
e 15 74
e 16 17
e 16 22
e 16 23
e 16 25
e 16 26
e 16 27
e 16 28
e 16 29
e 16 30
e 16 32
e 16 33
e 16 35
e 16 37
e 16 39
e 16 42
e 16 43
e 16 44
e 16 45
e 16 47
e 16 49
e 16 50
e 16 51
e 16 52
e 16 55
e 16 56
e 16 58
e 16 59
e 16 61
e 16 62
e 16 66
e 16 67
e 16 68
e 16 70
e 16 71
e 16 72
e 16 74
e 17 18
e 17 19
e 17 21
e 17 22
e 17 24
e 17 25
e 17 27
e 17 28
e 17 29
e 17 31
e 17 32
e 17 33
e 17 34
e 17 37
e 17 38
e 17 39
e 17 40
e 17 46
e 17 47
e 17 53
e 17 54
e 17 56
e 17 58
e 17 61
e 17 62
e 17 63
e 17 64
e 17 65
e 17 73
e 18 22
e 18 24
e 18 26
e 18 30
e 18 31
e 18 33
e 18 34
e 18 35
e 18 36
e 18 47
e 18 48
e 18 50
e 18 52
e 18 54
e 18 56
e 18 57
e 18 58
e 18 61
e 18 62
e 18 64
e 18 68
e 18 70
e 18 71
e 18 72
e 18 73
e 18 75
e 19 22
e 19 23
e 19 24
e 19 26
e 19 27
e 19 30
e 19 31
e 19 32
e 19 34
e 19 35
e 19 36
e 19 39
e 19 43
e 19 45
e 19 49
e 19 52
e 19 53
e 19 54
e 19 61
e 19 62
e 19 66
e 19 67
e 19 73
e 19 74
e 19 75
e 20 21
e 20 22
e 20 24
e 20 25
e 20 27
e 20 28
e 20 30
e 20 33
e 20 35
e 20 36
e 20 37
e 20 42
e 20 44
e 20 47
e 20 49
e 20 51
e 20 53
e 20 55
e 20 57
e 20 60
e 20 61
e 20 63
e 20 64
e 20 65
e 20 66
e 20 68
e 20 69
e 20 70
e 20 71
e 20 74
e 20 75
e 21 22
e 21 25
e 21 26
e 21 27
e 21 28
e 21 29
e 21 31
e 21 33
e 21 34
e 21 39
e 21 40
e 21 42
e 21 44
e 21 46
e 21 48
e 21 51
e 21 54
e 21 55
e 21 57
e 21 58
e 21 59
e 21 60
e 21 61
e 21 63
e 21 64
e 21 65
e 21 67
e 21 68
e 21 70
e 21 71
e 21 72
e 22 23
e 22 26
e 22 28
e 22 29
e 22 30
e 22 31
e 22 34
e 22 35
e 22 37
e 22 38
e 22 39
e 22 40
e 22 42
e 22 44
e 22 46
e 22 48
e 22 49
e 22 50
e 22 53
e 22 54
e 22 55
e 22 57
e 22 62
e 22 63
e 22 67
e 22 68
e 22 69
e 22 75
e 23 25
e 23 26
e 23 27
e 23 29
e 23 34
e 23 35
e 23 36
e 23 37
e 23 43
e 23 44
e 23 45
e 23 46
e 23 48
e 23 51
e 23 52
e 23 55
e 23 56
e 23 57
e 23 61
e 23 63
e 23 64
e 23 66
e 23 68
e 23 69
e 23 70
e 23 71
e 23 72
e 24 26
e 24 28
e 24 30
e 24 35
e 24 37
e 24 42
e 24 43
e 24 45
e 24 46
e 24 47
e 24 48
e 24 50
e 24 53
e 24 54
e 24 56
e 24 57
e 24 59
e 24 60
e 24 61
e 24 62
e 24 63
e 24 68
e 24 69
e 24 70
e 24 71
e 24 75
e 25 26
e 25 28
e 25 29
e 25 30
e 25 33
e 25 34
e 25 35
e 25 37
e 25 39
e 25 40
e 25 41
e 25 43
e 25 46
e 25 48
e 25 50
e 25 51
e 25 52
e 25 53
e 25 54
e 25 55
e 25 58
e 25 59
e 25 62
e 25 64
e 25 65
e 25 66
e 25 67
e 25 68
e 25 70
e 25 71
e 25 72
e 25 73
e 25 74
e 25 75
e 26 27
e 26 28
e 26 29
e 26 30
e 26 32
e 26 33
e 26 36
e 26 41
e 26 44
e 26 45
e 26 46
e 26 48
e 26 49
e 26 51
e 26 52
e 26 56
e 26 57
e 26 58
e 26 59
e 26 61
e 26 64
e 26 67
e 26 68
e 26 69
e 26 71
e 26 72
e 27 29
e 27 30
e 27 31
e 27 33
e 27 34
e 27 37
e 27 39
e 27 40
e 27 41
e 27 42
e 27 45
e 27 48
e 27 50
e 27 52
e 27 54
e 27 55
e 27 57
e 27 58
e 27 59
e 27 62
e 27 63
e 27 64
e 27 65
e 27 69
e 27 74
e 28 30
e 28 32
e 28 33
e 28 34
e 28 35
e 28 37
e 28 47
e 28 48
e 28 49
e 28 50
e 28 51
e 28 52
e 28 54
e 28 57
e 28 61
e 28 62
e 28 66
e 28 67
e 28 69
e 28 70
e 28 71
e 28 72
e 28 74
e 29 30
e 29 31
e 29 39
e 29 40
e 29 42
e 29 43
e 29 44
e 29 45
e 29 46
e 29 48
e 29 50
e 29 55
e 29 56
e 29 59
e 29 60
e 29 62
e 29 63
e 29 65
e 29 67
e 29 68
e 29 70
e 30 32
e 30 33
e 30 34
e 30 35
e 30 41
e 30 42
e 30 44
e 30 46
e 30 49
e 30 51
e 30 52
e 30 53
e 30 55
e 30 58
e 30 60
e 30 61
e 30 62
e 30 63
e 30 65
e 30 66
e 30 71
e 30 72
e 31 32
e 31 37
e 31 39
e 31 41
e 31 43
e 31 44
e 31 46
e 31 48
e 31 50
e 31 53
e 31 58
e 31 59
e 31 62
e 31 63
e 31 65
e 31 66
e 31 68
e 31 70
e 31 71
e 31 75
e 32 33
e 32 36
e 32 38
e 32 44
e 32 47
e 32 49
e 32 51
e 32 52
e 32 54
e 32 55
e 32 61
e 32 62
e 32 63
e 32 66
e 32 67
e 33 34
e 33 38
e 33 39
e 33 41
e 33 43
e 33 45
e 33 46
e 33 47
e 33 48
e 33 50
e 33 51
e 33 52
e 33 53
e 33 54
e 33 57
e 33 58
e 33 60
e 33 62
e 33 63
e 33 64
e 33 66
e 33 70
e 33 72
e 33 74
e 33 75
e 34 37
e 34 38
e 34 39
e 34 43
e 34 44
e 34 46
e 34 49
e 34 55
e 34 56
e 34 57
e 34 59
e 34 60
e 34 66
e 34 67
e 34 69
e 34 70
e 34 72
e 35 37
e 35 38
e 35 42
e 35 43
e 35 44
e 35 47
e 35 48
e 35 52
e 35 53
e 35 55
e 35 56
e 35 57
e 35 59
e 35 60
e 35 62
e 35 66
e 35 67
e 35 68
e 35 69
e 35 71
e 35 72
e 35 74
e 35 75
e 36 37
e 36 38
e 36 40
e 36 41
e 36 45
e 36 49
e 36 50
e 36 51
e 36 53
e 36 54
e 36 55
e 36 57
e 36 60
e 36 67
e 36 68
e 36 69
e 36 70
e 36 72
e 36 74
e 36 75
e 37 39
e 37 41
e 37 43
e 37 44
e 37 45
e 37 46
e 37 49
e 37 50
e 37 51
e 37 52
e 37 53
e 37 54
e 37 56
e 37 57
e 37 58
e 37 60
e 37 62
e 37 63
e 37 66
e 37 68
e 37 69
e 37 72
e 37 75
e 38 39
e 38 40
e 38 41
e 38 43
e 38 45
e 38 46
e 38 47
e 38 49
e 38 50
e 38 51
e 38 52
e 38 56
e 38 59
e 38 62
e 38 63
e 38 64
e 38 65
e 38 67
e 38 68
e 38 69
e 38 72
e 38 75
e 39 40
e 39 43
e 39 50
e 39 52
e 39 53
e 39 54
e 39 57
e 39 58
e 39 61
e 39 62
e 39 64
e 39 65
e 39 66
e 39 68
e 39 69
e 39 72
e 40 41
e 40 43
e 40 45
e 40 46
e 40 51
e 40 52
e 40 57
e 40 58
e 40 60
e 40 61
e 40 62
e 40 63
e 40 65
e 40 66
e 40 67
e 40 72
e 40 73
e 40 74
e 41 42
e 41 43
e 41 44
e 41 45
e 41 48
e 41 49
e 41 51
e 41 53
e 41 54
e 41 55
e 41 58
e 41 62
e 41 64
e 41 65
e 41 68
e 41 69
e 41 70
e 41 73
e 41 74
e 42 48
e 42 49
e 42 52
e 42 54
e 42 55
e 42 58
e 42 59
e 42 64
e 42 68
e 42 69
e 42 70
e 43 46
e 43 48
e 43 49
e 43 50
e 43 51
e 43 52
e 43 55
e 43 57
e 43 59
e 43 60
e 43 61
e 43 64
e 43 67
e 43 68
e 43 69
e 43 71
e 43 72
e 43 73
e 43 74
e 44 46
e 44 50
e 44 51
e 44 52
e 44 54
e 44 55
e 44 56
e 44 57
e 44 58
e 44 61
e 44 63
e 44 64
e 44 67
e 44 69
e 44 70
e 44 71
e 44 73
e 45 46
e 45 49
e 45 51
e 45 53
e 45 54
e 45 58
e 45 59
e 45 60
e 45 61
e 45 62
e 45 70
e 45 71
e 45 74
e 46 49
e 46 51
e 46 53
e 46 56
e 46 57
e 46 59
e 46 63
e 46 64
e 46 66
e 46 67
e 46 70
e 46 72
e 46 73
e 46 74
e 46 75
e 47 48
e 47 49
e 47 50
e 47 53
e 47 55
e 47 56
e 47 57
e 47 61
e 47 63
e 47 65
e 47 66
e 47 67
e 47 68
e 47 69
e 47 70
e 47 71
e 48 49
e 48 52
e 48 53
e 48 54
e 48 59
e 48 60
e 48 64
e 48 66
e 48 68
e 48 69
e 48 74
e 48 75
e 49 53
e 49 55
e 49 56
e 49 57
e 49 59
e 49 60
e 49 67
e 49 68
e 49 69
e 49 71
e 49 73
e 49 74
e 50 51
e 50 52
e 50 53
e 50 54
e 50 56
e 50 57
e 50 58
e 50 59
e 50 60
e 50 64
e 50 65
e 50 68
e 50 70
e 50 71
e 51 52
e 51 53
e 51 54
e 51 56
e 51 57
e 51 60
e 51 67
e 51 70
e 51 71
e 51 73
e 52 55
e 52 56
e 52 57
e 52 58
e 52 60
e 52 62
e 52 63
e 52 65
e 52 67
e 52 70
e 52 71
e 52 73
e 53 55
e 53 57
e 53 59
e 53 63
e 53 65
e 53 66
e 53 68
e 53 70
e 53 72
e 53 73
e 53 74
e 53 75
e 54 56
e 54 60
e 54 61
e 54 62
e 54 63
e 54 68
e 54 71
e 54 72
e 54 74
e 54 75
e 55 58
e 55 59
e 55 61
e 55 63
e 55 66
e 55 68
e 55 69
e 55 71
e 55 72
e 55 74
e 55 75
e 56 58
e 56 61
e 56 62
e 56 63
e 56 64
e 56 65
e 56 69
e 56 71
e 56 72
e 56 73
e 57 58
e 57 59
e 57 61
e 57 62
e 57 63
e 57 66
e 57 67
e 57 68
e 57 69
e 57 70
e 57 71
e 57 72
e 57 75
e 58 59
e 58 60
e 58 62
e 58 63
e 58 64
e 58 65
e 58 67
e 58 68
e 58 71
e 58 72
e 58 74
e 59 61
e 59 62
e 59 64
e 59 65
e 59 66
e 59 70
e 59 71
e 59 74
e 59 75
e 60 61
e 60 62
e 60 64
e 60 65
e 60 66
e 60 69
e 60 71
e 60 72
e 60 73
e 60 75
e 61 62
e 61 64
e 61 65
e 61 69
e 62 63
e 62 65
e 62 67
e 62 68
e 62 69
e 62 71
e 62 73
e 62 75
e 63 66
e 63 68
e 63 69
e 63 73
e 63 75
e 64 70
e 64 73
e 65 66
e 65 73
e 66 69
e 66 70
e 66 71
e 66 72
e 66 74
e 66 75
e 67 69
e 67 71
e 67 73
e 68 70
e 68 71
e 68 73
e 69 71
e 69 75
e 70 72
e 71 75
e 72 75
e 74 75
